c ! encoding i-pc 110
p cnf 1016 2577
-111 0
111 -112 0
113 0
114 -115 0
115 -116 0
31 -116 0
-31 -117 0
118 -120 0
119 -120 0
120 -121 0
21 -121 0
118 -122 0
122 -123 0
-21 -123 0
124 -125 0
44 -125 0
124 -126 0
-44 -126 0
127 -128 0
43 -128 0
124 -129 0
129 -130 0
-43 -130 0
131 -132 0
46 -132 0
131 -133 0
-46 -133 0
134 -135 0
45 -135 0
131 -136 0
136 -137 0
-45 -137 0
138 -139 0
34 -139 0
138 -140 0
-34 -140 0
141 -142 0
33 -142 0
138 -143 0
143 -144 0
-33 -144 0
145 -146 0
58 -146 0
145 -147 0
-58 -147 0
146 147 -148 0
148 -151 0
149 -151 0
150 -151 0
151 -152 0
57 -152 0
149 -153 0
150 -153 0
145 -154 0
58 -154 0
153 -154 0
154 -155 0
-57 -155 0
152 155 -156 0
157 -158 0
158 -159 0
93 -159 0
94 -160 0
-93 -160 0
159 160 -161 0
162 -163 0
163 -164 0
91 -164 0
-91 -165 0
156 -167 0
161 -167 0
166 -167 0
167 -168 0
74 -168 0
166 -169 0
73 -169 0
157 -169 0
169 -170 0
93 -170 0
166 -171 0
73 -171 0
111 -172 0
171 172 -173 0
173 -174 0
94 -174 0
174 -175 0
-93 -175 0
170 175 -176 0
148 -177 0
176 -177 0
177 -178 0
150 -178 0
178 -179 0
57 -179 0
145 -180 0
176 -180 0
180 -181 0
150 -181 0
181 -182 0
58 -182 0
111 -183 0
182 183 -184 0
184 -185 0
-57 -185 0
179 185 -186 0
186 -187 0
-74 -187 0
188 -189 0
75 -189 0
148 -190 0
149 -190 0
190 -191 0
57 -191 0
145 -192 0
58 -192 0
149 -192 0
192 -193 0
-57 -193 0
191 193 -194 0
194 -195 0
161 -195 0
166 -195 0
195 -196 0
74 -196 0
148 -197 0
57 -197 0
145 -198 0
58 -198 0
198 -199 0
-57 -199 0
197 199 -200 0
200 -201 0
161 -201 0
166 -201 0
73 -201 0
201 -202 0
-74 -202 0
196 202 -203 0
203 -204 0
76 -204 0
204 -205 0
-75 -205 0
206 -207 0
59 -207 0
206 -208 0
-59 -208 0
209 -210 0
60 -210 0
206 -211 0
211 -212 0
-60 -212 0
213 -214 0
96 -214 0
213 -215 0
-96 -215 0
216 -217 0
95 -217 0
213 -218 0
218 -219 0
-95 -219 0
220 -221 0
48 -221 0
220 -222 0
-48 -222 0
224 -226 0
225 -226 0
226 -227 0
63 -227 0
64 -228 0
224 -228 0
228 -229 0
-63 -229 0
230 -231 0
82 -231 0
225 -232 0
232 -233 0
63 -233 0
64 -234 0
-63 -234 0
233 234 -235 0
235 -236 0
81 -236 0
236 -237 0
-82 -237 0
238 -239 0
100 -239 0
238 -240 0
-100 -240 0
239 240 -241 0
241 -242 0
80 -242 0
241 -243 0
-80 -243 0
242 243 -244 0
244 -245 0
99 -245 0
238 -246 0
80 -246 0
238 -247 0
-80 -247 0
246 247 -248 0
248 -249 0
100 -249 0
249 -250 0
-99 -250 0
251 -252 0
79 -252 0
241 -253 0
99 -253 0
238 -254 0
100 -254 0
254 -255 0
-99 -255 0
253 255 -256 0
256 -257 0
80 -257 0
257 -258 0
-79 -258 0
260 -261 0
261 -262 0
83 -262 0
-83 -263 0
259 -265 0
264 -265 0
265 -266 0
102 -266 0
259 -267 0
264 -267 0
267 -268 0
-102 -268 0
266 268 -269 0
269 -270 0
97 -270 0
269 -271 0
-97 -271 0
270 271 -272 0
272 -273 0
98 -273 0
269 -274 0
97 -274 0
274 -275 0
-98 -275 0
276 -277 0
101 -277 0
259 -278 0
97 -278 0
259 -279 0
-97 -279 0
278 279 -280 0
280 -281 0
98 -281 0
259 -282 0
97 -282 0
282 -283 0
-98 -283 0
281 283 -284 0
284 -285 0
264 -285 0
102 -285 0
285 -286 0
-101 -286 0
223 -288 0
287 -288 0
288 -289 0
47 -289 0
220 -290 0
287 -290 0
290 -291 0
111 -292 0
291 292 -293 0
293 -294 0
-47 -294 0
295 -296 0
61 -296 0
295 -297 0
-61 -297 0
298 -299 0
62 -299 0
295 -300 0
300 -301 0
-62 -301 0
302 -303 0
77 -303 0
302 -304 0
-77 -304 0
305 -306 0
78 -306 0
302 -307 0
307 -308 0
-78 -308 0
309 -310 0
104 -310 0
309 -311 0
-104 -311 0
312 -313 0
103 -313 0
309 -314 0
314 -315 0
-103 -315 0
111 -318 0
318 -319 0
320 -321 0
321 -322 0
5 -322 0
6 -323 0
-5 -323 0
322 323 -324 0
324 -325 0
12 -325 0
324 -326 0
-12 -326 0
325 326 -327 0
327 -328 0
9 -328 0
327 -329 0
-9 -329 0
328 329 -330 0
331 -332 0
332 -333 0
19 -333 0
20 -334 0
-19 -334 0
333 334 -335 0
335 -336 0
28 -336 0
335 -337 0
-28 -337 0
336 337 -338 0
338 -339 0
27 -339 0
335 -340 0
28 -340 0
341 -342 0
331 -342 0
342 -343 0
-28 -343 0
340 343 -344 0
344 -345 0
-27 -345 0
339 345 -346 0
-3 -347 0
-4 -347 0
-7 -347 0
-8 -347 0
-15 -347 0
-16 -347 0
-25 -347 0
-26 -347 0
348 -350 0
349 -350 0
330 -351 0
346 -351 0
347 -351 0
350 -351 0
351 -352 0
11 -352 0
111 -353 0
-19 -354 0
-20 -354 0
-27 -354 0
-28 -354 0
354 -355 0
349 -355 0
355 -358 0
356 -358 0
357 -358 0
358 -359 0
17 -359 0
354 -360 0
356 -360 0
357 -360 0
360 -361 0
18 -361 0
-25 -362 0
-26 -362 0
362 -364 0
363 -364 0
364 -365 0
27 -365 0
362 -366 0
28 -366 0
356 -367 0
357 -367 0
367 -368 0
-28 -368 0
366 368 -369 0
369 -370 0
-27 -370 0
365 370 -371 0
371 -372 0
331 -372 0
372 -373 0
19 -373 0
371 -374 0
20 -374 0
-27 -375 0
-28 -375 0
356 -376 0
357 -376 0
375 -377 0
376 -377 0
377 -378 0
-20 -378 0
374 378 -379 0
379 -380 0
-19 -380 0
373 380 -381 0
381 -382 0
-18 -382 0
361 382 -383 0
383 -384 0
-17 -384 0
359 384 -385 0
386 -387 0
387 -388 0
8 -388 0
7 -389 0
-8 -389 0
388 389 -390 0
-5 -391 0
-6 -391 0
390 -393 0
391 -393 0
392 -393 0
393 -394 0
4 -394 0
3 -395 0
-5 -395 0
-6 -395 0
390 -396 0
395 -396 0
396 -397 0
-4 -397 0
394 397 -398 0
385 -399 0
398 -399 0
399 -400 0
-12 -400 0
353 400 -401 0
401 -402 0
15 -402 0
385 -403 0
398 -403 0
-12 -403 0
403 -404 0
-15 -404 0
402 404 -405 0
405 -406 0
16 -406 0
401 -407 0
15 -407 0
-3 -408 0
-4 -408 0
-7 -408 0
-8 -408 0
324 -409 0
346 -409 0
408 -409 0
409 -410 0
348 -410 0
349 -410 0
410 -411 0
12 -411 0
-17 -412 0
-18 -412 0
412 -413 0
331 -413 0
413 -415 0
363 -415 0
414 -415 0
415 -416 0
19 -416 0
412 -417 0
363 -417 0
414 -417 0
417 -418 0
20 -418 0
375 -419 0
349 -419 0
348 -419 0
419 -420 0
-20 -420 0
418 420 -421 0
421 -422 0
-19 -422 0
416 422 -423 0
391 -424 0
392 -424 0
424 -426 0
386 -426 0
425 -426 0
426 -427 0
4 -427 0
391 -428 0
386 -428 0
425 -428 0
428 -429 0
3 -429 0
-7 -430 0
-8 -430 0
430 -432 0
320 -432 0
431 -432 0
432 -433 0
-3 -433 0
429 433 -434 0
434 -435 0
-4 -435 0
427 435 -436 0
423 -437 0
436 -437 0
437 -438 0
-12 -438 0
411 438 -439 0
439 -440 0
362 -440 0
440 -441 0
-15 -441 0
407 441 -442 0
442 -443 0
-16 -443 0
406 443 -444 0
444 -445 0
9 -445 0
444 -446 0
-9 -446 0
445 446 -447 0
447 -448 0
-11 -448 0
352 448 -449 0
449 -450 0
10 -450 0
348 -451 0
349 -451 0
327 -452 0
346 -452 0
347 -452 0
451 -452 0
452 -453 0
11 -453 0
444 -454 0
-11 -454 0
453 454 -455 0
455 -456 0
9 -456 0
390 -457 0
15 -457 0
390 -458 0
-15 -458 0
457 458 -459 0
459 -460 0
381 -460 0
412 -460 0
460 -461 0
16 -461 0
381 -462 0
390 -462 0
412 -462 0
462 -463 0
15 -463 0
348 -464 0
349 -464 0
346 -465 0
362 -465 0
464 -465 0
465 -466 0
386 -466 0
425 -466 0
466 -467 0
-15 -467 0
463 467 -468 0
468 -469 0
-16 -469 0
461 469 -470 0
470 -472 0
471 -472 0
472 -473 0
11 -473 0
381 -474 0
459 -474 0
412 -474 0
471 -474 0
474 -475 0
16 -475 0
381 -476 0
390 -476 0
412 -476 0
471 -476 0
476 -477 0
15 -477 0
346 -478 0
349 -478 0
348 -478 0
478 -479 0
12 -479 0
423 -480 0
-12 -480 0
479 480 -481 0
481 -482 0
362 -482 0
482 -483 0
386 -483 0
425 -483 0
483 -484 0
-15 -484 0
477 484 -485 0
485 -486 0
-16 -486 0
475 486 -487 0
487 -488 0
-11 -488 0
473 488 -489 0
391 -490 0
392 -490 0
490 -491 0
4 -491 0
391 -492 0
3 -492 0
320 -493 0
431 -493 0
493 -494 0
-3 -494 0
492 494 -495 0
495 -496 0
-4 -496 0
491 496 -497 0
489 -498 0
497 -498 0
498 -499 0
-9 -499 0
456 499 -500 0
500 -501 0
-10 -501 0
450 501 -502 0
502 -505 0
503 -505 0
504 -505 0
505 -506 0
319 506 -507 0
507 -508 0
30 -508 0
507 -509 0
-30 -509 0
508 509 -510 0
511 -512 0
512 -513 0
106 -513 0
-106 -514 0
516 -518 0
517 -518 0
518 -519 0
41 -519 0
42 -520 0
516 -520 0
520 -521 0
-41 -521 0
522 -523 0
54 -523 0
517 -524 0
524 -525 0
41 -525 0
42 -526 0
-41 -526 0
525 526 -527 0
527 -528 0
53 -528 0
528 -529 0
-54 -529 0
530 -531 0
56 -531 0
530 -532 0
-56 -532 0
534 -535 0
535 -536 0
90 -536 0
-90 -537 0
538 -539 0
110 -539 0
538 -540 0
-110 -540 0
541 -542 0
109 -542 0
538 -543 0
543 -544 0
-109 -544 0
545 -546 0
107 -546 0
545 -547 0
-107 -547 0
548 -549 0
108 -549 0
545 -550 0
550 -551 0
-108 -551 0
552 -554 0
553 -554 0
554 -555 0
72 -555 0
552 -556 0
556 -557 0
-72 -557 0
533 -559 0
558 -559 0
559 -560 0
55 -560 0
530 -561 0
558 -561 0
561 -562 0
-55 -562 0
563 -564 0
87 -564 0
563 -565 0
-87 -565 0
564 565 -566 0
566 -567 0
70 -567 0
566 -568 0
-70 -568 0
567 568 -569 0
569 -570 0
69 -570 0
566 -571 0
70 -571 0
571 -572 0
-69 -572 0
515 -574 0
573 -574 0
574 -575 0
88 -575 0
563 -576 0
70 -576 0
563 -577 0
-70 -577 0
576 577 -578 0
578 -579 0
69 -579 0
563 -580 0
70 -580 0
580 -581 0
-69 -581 0
579 581 -582 0
515 -583 0
582 -583 0
87 -583 0
583 -584 0
-88 -584 0
510 -586 0
585 -586 0
586 -587 0
29 -587 0
111 -588 0
588 -589 0
502 -591 0
590 -591 0
504 -591 0
591 -592 0
589 592 -593 0
30 -594 0
593 -595 0
585 -595 0
594 -595 0
595 -596 0
-29 -596 0
587 596 -597 0
597 -598 0
39 -598 0
111 -599 0
111 -600 0
-12 -601 0
-20 -601 0
-27 -601 0
-28 -601 0
357 -602 0
356 -602 0
398 -603 0
601 -603 0
602 -603 0
603 -604 0
-19 -604 0
600 604 -605 0
605 -606 0
18 -606 0
-12 -607 0
-19 -607 0
-20 -607 0
-27 -607 0
-28 -607 0
357 -608 0
356 -608 0
398 -609 0
607 -609 0
608 -609 0
609 -610 0
-18 -610 0
606 610 -611 0
611 -612 0
-11 -612 0
612 -613 0
15 -613 0
111 -614 0
111 -615 0
-5 -616 0
-6 -616 0
-11 -616 0
-12 -616 0
390 -617 0
616 -617 0
392 -617 0
617 -618 0
4 -618 0
3 -619 0
-5 -619 0
-6 -619 0
-11 -619 0
-12 -619 0
390 -620 0
619 -620 0
620 -621 0
-4 -621 0
618 621 -622 0
-27 -623 0
-28 -623 0
357 -624 0
356 -624 0
622 -625 0
623 -625 0
624 -625 0
625 -626 0
-20 -626 0
615 626 -627 0
627 -628 0
-19 -628 0
614 628 -629 0
629 -630 0
18 -630 0
627 -631 0
-19 -631 0
631 -632 0
-18 -632 0
630 632 -633 0
633 -634 0
-15 -634 0
613 634 -635 0
635 -636 0
16 -636 0
-11 -637 0
-12 -637 0
-19 -637 0
-20 -637 0
-27 -637 0
-28 -637 0
349 -638 0
357 -638 0
356 -638 0
398 -639 0
637 -639 0
638 -639 0
639 -640 0
15 -640 0
327 -641 0
331 -641 0
641 -642 0
11 -642 0
324 -643 0
12 -643 0
331 -643 0
643 -644 0
-11 -644 0
642 644 -645 0
645 -646 0
408 -646 0
646 -647 0
414 -647 0
363 -647 0
647 -648 0
19 -648 0
111 -649 0
649 -650 0
327 -651 0
11 -651 0
324 -652 0
12 -652 0
652 -653 0
-11 -653 0
651 653 -654 0
654 -655 0
430 -655 0
655 -656 0
-4 -656 0
650 656 -657 0
657 -658 0
-3 -658 0
658 -659 0
414 -659 0
363 -659 0
659 -660 0
20 -660 0
616 -662 0
661 -662 0
662 -663 0
386 -663 0
425 -663 0
663 -664 0
3 -664 0
-4 -665 0
-7 -665 0
-8 -665 0
665 -666 0
320 -666 0
666 -668 0
471 -668 0
667 -668 0
668 -669 0
5 -669 0
665 -670 0
471 -670 0
667 -670 0
670 -671 0
6 -671 0
386 -672 0
425 -672 0
672 -673 0
4 -673 0
430 -674 0
-4 -674 0
673 674 -675 0
-11 -676 0
-12 -676 0
675 -677 0
676 -677 0
677 -678 0
-6 -678 0
671 678 -679 0
679 -680 0
-5 -680 0
669 680 -681 0
681 -682 0
-3 -682 0
664 682 -683 0
683 -684 0
375 -684 0
684 -685 0
-20 -685 0
660 685 -686 0
686 -687 0
-19 -687 0
648 687 -688 0
688 -689 0
18 -689 0
688 -690 0
-18 -690 0
689 690 -691 0
-25 -692 0
-26 -692 0
691 -693 0
692 -693 0
693 -694 0
-15 -694 0
640 694 -695 0
695 -696 0
-16 -696 0
636 696 -697 0
697 -698 0
17 -698 0
-19 -699 0
-20 -699 0
-27 -699 0
-28 -699 0
357 -700 0
356 -700 0
699 -701 0
700 -701 0
701 -702 0
18 -702 0
692 -703 0
363 -703 0
703 -704 0
27 -704 0
692 -705 0
28 -705 0
357 -707 0
356 -707 0
706 -708 0
707 -708 0
708 -709 0
-28 -709 0
705 709 -710 0
710 -711 0
-27 -711 0
704 711 -712 0
712 -713 0
331 -713 0
713 -714 0
19 -714 0
712 -715 0
20 -715 0
357 -716 0
356 -716 0
623 -717 0
716 -717 0
717 -718 0
-20 -718 0
715 718 -719 0
719 -720 0
-19 -720 0
714 720 -721 0
721 -722 0
-18 -722 0
702 722 -723 0
723 -724 0
398 -724 0
676 -724 0
724 -725 0
15 -725 0
629 -726 0
18 -726 0
622 -727 0
721 -727 0
727 -728 0
-18 -728 0
726 728 -729 0
729 -730 0
-15 -730 0
725 730 -731 0
731 -732 0
16 -732 0
723 -733 0
398 -733 0
676 -733 0
733 -734 0
15 -734 0
688 -735 0
18 -735 0
683 -736 0
346 -736 0
736 -737 0
-18 -737 0
735 737 -738 0
738 -739 0
692 -739 0
739 -740 0
-15 -740 0
734 740 -741 0
741 -742 0
-16 -742 0
732 742 -743 0
743 -744 0
-17 -744 0
698 744 -745 0
745 -746 0
9 -746 0
745 -747 0
-9 -747 0
746 747 -748 0
748 -749 0
10 -749 0
745 -750 0
9 -750 0
349 -751 0
471 -751 0
751 -752 0
11 -752 0
12 -753 0
349 -753 0
753 -754 0
-11 -754 0
752 754 -755 0
755 -756 0
20 -756 0
755 -757 0
-20 -757 0
756 757 -758 0
758 -759 0
414 -759 0
363 -759 0
759 -760 0
19 -760 0
755 -761 0
414 -761 0
363 -761 0
761 -762 0
20 -762 0
375 -763 0
349 -763 0
667 -763 0
471 -763 0
763 -764 0
-20 -764 0
762 764 -765 0
765 -766 0
-19 -766 0
760 766 -767 0
-15 -768 0
-16 -768 0
-25 -768 0
-26 -768 0
386 -769 0
425 -769 0
767 -770 0
768 -770 0
769 -770 0
770 -771 0
17 -771 0
-18 -772 0
667 -773 0
471 -773 0
381 -774 0
459 -774 0
772 -774 0
773 -774 0
774 -775 0
16 -775 0
667 -776 0
471 -776 0
381 -777 0
390 -777 0
-18 -777 0
776 -777 0
777 -778 0
15 -778 0
471 -779 0
779 -780 0
11 -780 0
12 -781 0
-11 -781 0
780 781 -782 0
782 -783 0
20 -783 0
782 -784 0
-20 -784 0
783 784 -785 0
785 -786 0
414 -786 0
363 -786 0
786 -787 0
19 -787 0
782 -788 0
414 -788 0
363 -788 0
788 -789 0
20 -789 0
375 -790 0
667 -790 0
471 -790 0
790 -791 0
-20 -791 0
789 791 -792 0
792 -793 0
-19 -793 0
787 793 -794 0
794 -795 0
18 -795 0
346 -796 0
667 -796 0
471 -796 0
796 -797 0
-18 -797 0
795 797 -798 0
798 -799 0
362 -799 0
799 -800 0
386 -800 0
425 -800 0
800 -801 0
-15 -801 0
778 801 -802 0
802 -803 0
803 -804 0
-16 -804 0
775 804 -805 0
805 -806 0
-17 -806 0
771 806 -807 0
807 -808 0
497 -808 0
808 -809 0
-9 -809 0
750 809 -810 0
810 -811 0
-10 -811 0
749 811 -812 0
40 -813 0
812 -814 0
585 -814 0
813 -814 0
814 -815 0
599 815 -816 0
816 -817 0
30 -817 0
816 -818 0
-30 -818 0
817 818 -819 0
819 -820 0
29 -820 0
816 -821 0
30 -821 0
111 -822 0
821 822 -823 0
823 -824 0
-29 -824 0
820 824 -825 0
825 -826 0
-39 -826 0
316 -828 0
827 -828 0
828 -829 0
111 -830 0
829 830 -831 0
831 -832 0
112 832 -833 0
833 -834 0
85 -834 0
833 -835 0
-85 -835 0
834 835 -836 0
836 -837 0
67 -837 0
836 -838 0
-67 -838 0
837 838 -839 0
839 -840 0
65 -840 0
839 -841 0
-65 -841 0
840 841 -842 0
842 -843 0
68 -843 0
111 -844 0
831 -845 0
65 -845 0
-65 -846 0
845 846 -847 0
847 -848 0
844 848 -849 0
849 -850 0
85 -850 0
849 -851 0
-85 -851 0
850 851 -852 0
852 -853 0
67 -853 0
853 -854 0
-68 -854 0
843 854 -855 0
855 -856 0
86 -856 0
849 -857 0
67 -857 0
849 -858 0
-67 -858 0
857 858 -859 0
859 -860 0
68 -860 0
849 -861 0
67 -861 0
861 -862 0
-68 -862 0
860 862 -863 0
863 -864 0
85 -864 0
864 -865 0
-86 -865 0
856 865 -866 0
866 -867 0
66 -867 0
111 -868 0
65 -869 0
316 -870 0
827 -870 0
869 -870 0
870 -871 0
868 871 -872 0
872 -873 0
67 -873 0
833 -874 0
65 -874 0
874 -875 0
-67 -875 0
873 875 -876 0
876 -877 0
85 -877 0
833 -878 0
67 -878 0
833 -879 0
-67 -879 0
878 879 -880 0
880 -881 0
65 -881 0
881 -882 0
-85 -882 0
877 882 -883 0
883 -884 0
68 -884 0
65 -885 0
67 -885 0
836 -886 0
885 -886 0
886 -887 0
-68 -887 0
884 887 -888 0
888 -889 0
86 -889 0
880 -890 0
68 -890 0
833 -891 0
67 -891 0
111 -892 0
891 892 -893 0
893 -894 0
-68 -894 0
890 894 -895 0
65 -896 0
85 -896 0
895 -897 0
896 -897 0
897 -898 0
-86 -898 0
889 898 -899 0
899 -900 0
-66 -900 0
867 900 -901 0
901 -902 0
36 -902 0
901 -903 0
-36 -903 0
902 903 -904 0
904 -905 0
24 -905 0
904 -906 0
-24 -906 0
905 906 -907 0
907 -908 0
23 -908 0
904 -909 0
24 -909 0
909 -910 0
-23 -910 0
908 910 -911 0
911 -912 0
13 -912 0
911 -913 0
-13 -913 0
912 913 -914 0
914 -915 0
14 -915 0
904 -916 0
13 -916 0
916 -917 0
24 -917 0
852 -918 0
66 -918 0
836 -919 0
65 -919 0
919 -920 0
-66 -920 0
918 920 -921 0
921 -922 0
67 -922 0
921 -923 0
-67 -923 0
922 923 -924 0
924 -925 0
13 -925 0
111 -926 0
925 926 -927 0
927 -928 0
68 -928 0
13 -929 0
67 -929 0
921 -930 0
929 -930 0
930 -931 0
-68 -931 0
928 931 -932 0
932 -933 0
36 -933 0
924 -934 0
68 -934 0
921 -935 0
67 -935 0
935 -936 0
-68 -936 0
934 936 -937 0
937 -938 0
13 -938 0
938 -939 0
-36 -939 0
933 939 -940 0
940 -941 0
86 -941 0
849 -942 0
66 -942 0
833 -943 0
65 -943 0
943 -944 0
-66 -944 0
942 944 -945 0
945 -946 0
67 -946 0
945 -947 0
-67 -947 0
946 947 -948 0
948 -949 0
68 -949 0
945 -950 0
67 -950 0
950 -951 0
-68 -951 0
949 951 -952 0
952 -953 0
36 -953 0
952 -954 0
-36 -954 0
953 954 -955 0
13 -956 0
85 -956 0
955 -957 0
956 -957 0
957 -958 0
-86 -958 0
941 958 -959 0
959 -960 0
-24 -960 0
917 960 -961 0
961 -962 0
23 -962 0
13 -963 0
24 -963 0
904 -964 0
963 -964 0
964 -965 0
-23 -965 0
962 965 -966 0
966 -967 0
-14 -967 0
968 -969 0
35 -969 0
924 -970 0
13 -970 0
924 -971 0
-13 -971 0
970 971 -972 0
972 -973 0
68 -973 0
921 -974 0
13 -974 0
921 -975 0
-13 -975 0
974 975 -976 0
976 -977 0
67 -977 0
977 -978 0
-68 -978 0
973 978 -979 0
979 -980 0
86 -980 0
948 -981 0
13 -981 0
948 -982 0
-13 -982 0
981 982 -983 0
983 -984 0
68 -984 0
945 -985 0
13 -985 0
945 -986 0
-13 -986 0
985 986 -987 0
987 -988 0
67 -988 0
988 -989 0
-68 -989 0
984 989 -990 0
990 -991 0
85 -991 0
991 -992 0
-86 -992 0
980 992 -993 0
993 -994 0
24 -994 0
993 -995 0
-24 -995 0
994 995 -996 0
996 -997 0
23 -997 0
993 -998 0
24 -998 0
998 -999 0
-23 -999 0
997 999 -1000 0
1000 -1001 0
14 -1001 0
901 -1002 0
24 -1002 0
901 -1003 0
-24 -1003 0
1002 1003 -1004 0
1004 -1005 0
13 -1005 0
1005 -1006 0
23 -1006 0
901 -1007 0
963 -1007 0
1007 -1008 0
-23 -1008 0
1006 1008 -1009 0
1009 -1010 0
-14 -1010 0
1001 1010 -1011 0
1011 -1012 0
36 -1012 0
1012 -1013 0
-35 -1013 0
1014 -1016 0
-1 0
-2 0
-37 0
-38 0
-1010 1011 0
-1009 1010 0
-1008 1009 0
-508 510 0
-507 508 509 0
-752 755 0
-506 507 0
-753 754 0
-505 506 0
-504 505 591 0
-502 505 591 0
-501 502 0
-7 386 389 0
10 501 811 0
-661 662 0
-500 501 0
-499 500 0
-498 499 0
-497 498 808 0
-492 495 0
-976 977 0
-489 498 0
-487 488 0
-483 484 0
-965 966 0
-839 840 841 0
-1007 1008 0
-225 226 232 0
-478 479 0
-475 487 0
-473 489 0
-606 611 0
-472 473 0
-471 472 474 476 668 670 751 763 773 776 779 790 796 0
-467 468 0
-466 467 0
-463 468 0
-462 463 0
-331 332 342 372 413 641 643 713 0
-821 823 0
-456 500 0
-817 819 0
-453 455 0
35 1013 0
-816 817 818 821 0
-451 452 0
91 165 0
-450 502 0
-626 627 0
-10 450 749 0
-448 449 0
-447 448 0
-201 202 0
-446 447 0
-444 445 446 454 0
-443 444 0
-503 505 0
-87 564 583 0
-441 442 0
-193 194 0
-771 807 0
-439 440 0
-775 805 0
-186 187 0
-433 434 0
-544 545 0
-671 679 0
-485 486 0
-945 946 947 950 985 986 0
-427 436 0
-548 549 0
-426 427 0
-484 485 0
-424 426 0
-672 673 0
-422 423 0
-666 668 0
-416 423 0
-867 901 0
-415 416 0
-676 677 724 733 0
-407 442 0
-659 660 0
-805 806 0
-16 406 461 475 636 732 775 0
-607 609 0
-651 654 0
-770 771 0
-400 401 0
-398 399 403 603 609 639 724 733 0
-397 398 0
-395 396 0
-634 635 0
-3 392 395 429 492 619 664 0
-391 393 424 428 490 492 0
62 301 0
-993 994 995 998 0
-389 390 0
-873 876 0
-387 388 0
-872 873 0
-386 387 426 428 466 483 649 663 672 769 800 0
-385 399 403 0
-384 385 0
-377 378 0
-977 978 0
-375 377 419 684 763 790 0
-374 379 0
-973 979 0
-372 373 0
-371 372 374 0
-731 732 0
-458 459 0
-974 976 0
-370 371 0
-730 731 0
-966 967 0
-365 371 0
-50 112 844 868 0
-725 731 0
-358 359 0
-25 357 0
-361 383 0
-26 356 0
-419 420 0
69 572 581 0
-714 721 0
-352 449 0
-474 475 0
-351 352 0
8 347 389 408 425 430 665 0
17 348 384 412 744 806 0
-848 849 0
-392 393 424 490 617 0
-423 437 480 0
25 347 357 362 692 768 0
-360 361 0
-128 131 0
-368 369 0
15 347 404 441 458 467 484 634 694 730 740 768 801 0
-525 527 0
-56 531 561 0
-366 369 0
-617 618 0
-496 497 0
7 347 386 408 430 665 0
-696 697 0
-940 941 0
-346 351 409 452 465 478 736 796 0
-461 470 0
-344 345 0
3 347 392 408 433 494 658 682 0
108 551 0
-842 843 0
-341 342 0
-340 344 0
-590 591 0
-339 346 0
-27 339 365 414 704 0
28 337 343 354 363 368 375 601 607 623 637 699 709 0
27 345 354 370 375 414 601 607 623 637 699 711 0
-336 338 0
-335 336 337 340 0
-334 335 0
-582 583 0
-495 496 0
19 334 341 354 380 422 604 607 628 631 637 687 699 720 766 793 0
-811 812 0
-333 335 0
-332 333 0
-579 582 0
-971 972 0
-455 456 0
-818 819 0
-699 701 0
-399 400 0
-9 328 445 456 746 750 0
-327 328 329 452 641 651 0
93 160 175 0
-574 575 0
-326 327 0
-573 574 0
12 326 400 403 438 471 480 601 607 616 619 637 676 0
-468 469 0
-586 587 0
-605 606 0
-12 325 353 411 471 479 643 652 753 781 0
5 323 391 395 431 616 619 680 0
6 320 391 395 616 619 678 0
-493 494 0
-737 738 0
-843 855 0
-736 737 0
-6 320 323 671 0
40 504 0
-154 155 0
-401 402 407 0
-445 447 0
-317 318 588 0
52 317 0
-520 521 0
-122 123 0
-465 466 0
103 315 0
-103 313 0
-224 226 228 0
104 311 0
-917 961 0
-104 310 314 0
-834 836 0
-78 306 0
-759 760 0
-45 135 0
-838 839 0
77 304 0
-910 911 0
-537 538 0
9 329 446 499 747 809 0
-979 980 0
-77 303 307 0
-1011 1012 0
-491 497 0
-628 629 0
-19 333 341 373 416 600 614 648 714 760 787 0
61 297 0
-729 730 0
-470 472 0
-369 370 0
-102 266 285 0
-95 217 0
-345 346 0
-417 418 0
-290 291 0
-47 289 0
-382 383 0
-742 743 0
-860 863 0
-578 579 0
-348 350 410 419 451 464 478 0
-330 351 0
86 865 898 958 992 0
-929 930 0
-196 203 0
-252 259 0
-192 193 0
18 349 382 412 610 632 690 722 728 737 772 777 797 0
-61 296 300 0
-136 137 0
-132 134 0
-476 477 0
-174 175 0
-828 829 0
-74 168 196 0
-438 439 0
-173 174 0
-168 188 0
-34 139 143 0
-349 350 355 410 419 451 464 478 638 751 753 763 0
-195 196 0
-350 351 0
-702 723 0
-170 176 0
-420 421 0
-895 897 0
-169 170 0
-338 339 0
-91 164 0
-162 163 0
-184 185 0
-435 436 0
-113 115 158 163 226 232 261 321 332 342 367 387 493 512 518 524 535 672 751 779 0
-328 330 0
-576 578 0
-153 154 0
-978 979 0
-59 207 211 0
-792 793 0
-57 152 179 191 197 0
-155 156 0
-518 519 0
-766 767 0
-421 422 0
-76 150 204 0
-542 545 0
-390 393 396 457 458 462 476 617 620 777 0
-149 151 153 190 192 0
-877 883 0
-364 365 0
-46 132 136 0
-722 723 0
-175 176 0
-260 261 0
-73 149 169 171 201 0
-902 904 0
-185 186 0
-1012 1013 0
20 331 354 378 420 601 607 626 637 685 699 718 757 764 784 791 0
-114 115 0
-325 327 0
-75 189 0
-572 573 0
-148 151 177 190 197 0
-641 642 0
-324 325 326 409 643 652 0
-570 573 0
-432 433 0
-180 181 0
-678 679 0
-179 186 0
-127 128 0
56 532 0
45 137 0
-964 965 0
-125 127 0
-840 842 0
-367 368 0
-835 836 0
78 308 0
-679 680 0
59 208 0
-616 617 662 0
-100 239 249 254 0
-379 380 0
54 529 0
-356 358 360 367 376 602 608 624 638 700 707 716 0
-723 724 733 0
-176 177 180 0
-430 432 655 674 0
-380 381 0
-181 182 0
98 275 283 0
-121 124 0
-43 128 0
65 841 846 0
-187 188 0
-151 152 0
-404 405 0
-645 646 0
-133 134 0
-381 382 460 462 474 476 774 777 0
-972 973 0
-194 195 0
-442 443 0
-806 807 0
-8 388 425 0
-182 184 0
-123 124 0
-717 718 0
-517 518 524 0
-157 158 169 0
29 596 824 0
-845 847 0
-83 262 0
-188 189 0
75 205 0
22 119 0
97 271 279 0
-406 444 0
-807 808 0
-33 142 0
-152 156 0
-521 522 0
-320 321 432 493 666 0
-142 145 0
-755 756 757 761 0
-137 138 0
-871 872 0
13 913 926 971 975 982 986 0
-178 179 0
-798 799 0
-126 127 0
-613 635 0
-93 159 170 0
-410 411 0
-314 315 0
-117 118 0
-253 256 0
34 140 0
-265 266 0
-299 302 0
-240 241 0
-51 319 589 599 0
94 157 0
-700 701 0
84 260 0
-129 130 0
-120 121 0
-116 118 0
-449 450 0
-96 214 218 0
-703 704 0
-454 455 0
-970 972 0
31 117 0
73 149 172 0
-134 135 0
-177 178 0
-190 191 0
-305 306 0
21 123 0
-246 248 0
-164 166 0
-135 138 0
-62 299 0
-275 276 0
-130 131 0
-97 270 274 278 282 0
-274 275 0
-39 598 0
-488 489 0
-58 146 154 182 192 198 0
-621 622 0
-987 988 0
-321 322 0
-568 569 0
-144 145 0
-756 758 0
-141 142 0
-64 225 228 234 0
-754 755 0
-342 343 0
-282 283 0
-428 429 0
-685 686 0
-160 161 0
-284 285 0
26 347 356 362 692 768 0
-278 280 0
-218 219 0
-115 116 0
-583 584 0
-950 951 0
-94 157 160 174 0
46 133 0
-20 331 334 374 418 615 660 715 756 762 783 789 0
-233 235 0
-602 603 0
-408 409 646 0
-891 893 0
-403 404 0
-139 141 0
-140 141 0
-396 397 0
-286 287 0
-143 144 0
-373 381 0
23 910 965 999 1008 0
-760 767 0
44 126 0
-961 962 0
-667 668 670 763 773 776 790 796 0
-569 570 0
-1015 1016 0
-757 758 0
58 147 183 0
-698 745 0
-863 864 0
-323 324 0
-571 572 0
-146 148 0
-758 759 0
-198 199 0
-383 384 0
-744 745 0
-864 865 0
-720 721 0
-199 200 0
-931 932 0
-761 762 0
-721 722 727 0
-200 201 0
-810 811 0
-261 262 0
-981 983 0
-202 203 0
-263 264 0
-204 205 0
-486 487 0
-49 829 869 0
-968 969 0
81 224 0
92 162 0
-727 728 0
-982 983 0
-203 204 0
-791 792 0
-262 264 0
-985 987 0
-189 206 0
-267 268 0
-298 299 0
-677 678 0
-793 794 0
-79 252 0
-304 305 0
-984 990 0
-208 209 0
-268 269 0
-393 394 0
57 155 185 193 199 0
-266 269 0
32 114 0
-270 272 0
-211 212 0
-272 273 0
-460 461 0
43 130 0
-158 159 0
-281 284 0
-66 867 918 942 0
-269 270 271 274 0
-279 280 0
101 286 0
-221 223 0
-481 482 0
-214 216 0
-480 481 0
-991 992 0
-733 734 0
-210 213 0
-271 272 0
-191 194 0
30 509 818 822 0
-388 390 0
-996 997 0
-31 116 0
95 219 0
-944 945 0
-280 281 0
-156 167 0
-159 161 0
-409 410 0
-283 284 0
-276 277 0
-48 221 291 0
-81 224 236 0
-359 385 0
-256 257 0
-258 259 0
-163 164 0
-285 286 0
-68 843 860 884 890 928 934 949 973 984 0
-167 168 0
-595 596 0
-257 258 0
-60 210 0
-801 802 0
-63 227 233 0
-171 173 0
-899 900 0
-587 597 0
-277 287 0
-300 301 0
67 838 858 875 879 892 923 947 0
-165 166 0
-440 441 0
-804 805 0
63 229 234 0
-477 485 0
-216 217 0
-995 996 0
-412 413 417 460 462 474 476 0
-291 293 0
74 187 202 0
-296 298 0
-230 231 0
-597 598 0
-490 491 0
-229 230 0
-596 597 0
-322 324 0
-82 231 0
-15 402 407 457 463 477 613 640 725 734 778 0
55 562 0
-874 875 0
-619 620 0
-231 238 0
-110 539 543 0
-99 245 253 0
-232 233 0
-813 814 0
-288 289 0
-70 567 571 576 580 0
-293 294 0
-289 295 0
-234 235 0
33 144 0
-294 295 0
-235 236 0
-236 237 0
-376 377 0
-459 460 474 774 0
-975 976 0
82 237 0
64 225 0
-802 803 0
4 347 397 408 435 496 621 656 661 665 674 0
-594 595 0
83 263 0
-312 313 0
-297 298 0
-675 677 0
-237 238 0
-434 435 0
-303 305 0
-307 308 0
-247 248 0
-875 876 0
100 240 0
-30 508 594 817 821 0
-711 712 0
-301 302 0
-5 322 431 669 0
-794 795 0
-241 242 243 253 0
-425 426 428 466 483 649 663 672 769 800 0
-119 120 0
-80 242 246 257 0
-242 244 0
-347 351 452 0
80 243 247 0
-551 552 0
-243 244 0
-244 245 0
-245 251 0
-72 555 0
-306 309 0
-248 249 0
-308 309 0
-800 801 0
-457 459 0
-819 820 0
-357 358 360 367 376 602 608 624 638 700 707 716 0
99 250 255 0
-250 251 0
24 906 960 995 1003 0
-311 312 0
48 222 292 0
-251 252 0
-254 255 0
-313 316 0
-255 256 0
76 150 0
-315 316 0
-581 582 0
79 258 0
-337 338 0
102 268 0
-591 592 0
-329 330 0
-577 578 0
-464 465 0
-101 277 0
-161 167 195 201 0
47 294 0
-509 510 0
-510 586 0
105 511 0
-511 512 0
-512 513 0
-36 902 933 953 1012 0
-106 513 0
-513 515 0
-692 693 703 705 739 0
-378 379 0
106 514 0
-514 515 0
-53 516 528 0
-355 358 0
-612 613 0
-42 517 520 526 0
-310 312 0
42 517 0
-567 569 0
-41 519 525 0
-783 785 0
-519 522 0
41 521 526 0
-887 888 0
-522 523 0
-646 647 0
-54 523 0
-738 739 0
-854 855 0
-17 348 359 698 771 0
-523 530 0
-524 525 0
-652 653 0
-526 527 0
-653 654 0
-527 528 0
-654 655 0
2 1015 0
-528 529 0
-655 656 0
-67 837 853 857 861 873 878 885 891 922 929 935 946 950 977 988 0
-529 530 0
-777 778 0
-779 780 0
-797 798 0
-531 533 0
-516 518 520 0
-780 782 0
-18 349 361 606 630 689 702 726 735 795 0
60 212 0
-532 533 0
-781 782 0
-533 559 0
-782 783 784 788 0
-566 567 568 571 0
89 534 0
-273 276 0
-534 535 0
-799 800 0
-535 536 0
71 553 0
53 516 0
-784 785 0
-11 352 453 473 642 651 667 752 780 0
-90 536 0
-437 438 0
-691 693 0
-778 802 0
-536 538 0
-402 405 0
-665 666 670 0
-785 786 0
11 448 454 488 612 616 619 637 644 653 667 676 754 781 0
90 537 0
-539 541 0
110 540 0
-540 541 0
-541 542 0
-109 542 0
-915 968 0
-543 544 0
109 544 0
-546 548 0
-795 798 0
107 547 0
-547 548 0
-108 549 0
-549 552 0
-550 551 0
-668 669 0
-662 663 0
-553 554 0
-554 555 0
-555 558 0
-556 557 0
72 557 0
-559 560 0
-85 834 850 864 877 896 956 991 0
-55 560 0
-560 563 0
37 503 594 601 607 623 637 692 699 706 808 0
-561 562 0
-927 928 0
-562 563 0
-808 809 0
-227 230 0
-14 915 1001 0
70 568 577 0
-564 566 0
-852 853 918 0
87 565 0
-565 566 0
-69 570 579 0
-88 575 0
-575 585 0
-825 826 0
-580 581 0
88 584 0
-584 585 0
-29 587 820 0
-905 907 0
-957 958 0
-598 827 0
-724 725 0
-601 603 0
-28 336 340 363 366 705 0
-726 729 0
-603 604 0
-604 605 0
-608 609 0
-609 610 0
-592 593 0
-850 852 0
-354 355 360 0
-611 612 0
-618 622 0
-620 621 0
-622 625 727 0
-98 273 281 0
-362 364 366 440 465 482 799 0
-623 625 717 0
-363 364 415 417 647 659 703 759 761 786 788 0
-624 625 0
-627 628 631 0
-629 630 726 0
-768 770 0
-630 633 0
-107 546 550 0
-631 632 0
-632 633 0
-751 752 0
-633 634 0
-635 636 0
-4 394 427 491 618 650 661 673 0
-636 697 0
-637 639 0
-222 223 0
-1002 1004 0
-638 639 0
-639 640 0
-228 229 0
-1005 1006 0
-640 695 0
-937 938 0
-642 645 0
-764 765 0
-643 644 0
-644 645 0
-647 648 0
-648 688 0
-656 657 0
-657 658 0
-658 659 0
-429 434 0
-660 686 0
-663 664 0
-934 937 0
-664 683 0
-669 681 0
-418 421 0
-147 148 0
-670 671 0
-920 921 0
-673 675 0
-674 675 0
-790 791 0
-903 904 0
-680 681 0
-681 682 0
-682 683 0
-918 921 0
-683 684 736 0
-922 924 0
-684 685 0
-413 415 0
-923 924 0
-686 687 0
-86 856 889 941 980 0
-687 688 0
-689 691 0
-932 933 0
-436 437 0
-690 691 0
-411 439 0
-693 694 0
-694 695 0
-695 696 0
-697 698 0
-701 702 0
-704 712 0
-705 710 0
-706 708 0
-707 708 0
-708 709 0
-709 710 0
-710 711 0
-712 713 715 0
-713 714 0
-715 719 0
-716 717 0
-718 719 0
-197 200 0
-719 720 0
-469 470 0
-728 729 0
-732 743 0
-343 344 0
-861 862 0
-734 741 0
-857 859 0
-479 481 0
-735 738 0
-593 595 0
-851 852 0
-23 908 962 997 1006 0
-739 740 0
-855 856 0
-740 741 0
-858 859 0
-741 742 0
-859 860 0
-743 744 0
-862 863 0
-745 746 747 750 0
-610 611 0
-856 866 0
-746 748 0
-865 866 0
-747 748 0
-866 867 0
96 215 0
-869 870 0
-749 812 0
-935 936 0
-750 810 0
-239 241 0
-762 765 0
-763 764 0
-880 881 890 0
-44 125 129 0
-765 766 0
-767 770 0
-494 495 0
-769 770 0
-772 774 0
-249 250 0
-773 774 0
-774 775 0
-776 777 0
16 347 443 469 486 696 742 768 804 0
-786 787 0
-787 794 0
-788 789 0
-789 792 0
-796 797 0
-911 912 913 0
-803 804 0
-809 810 0
-150 151 153 178 181 0
-930 931 0
-812 814 0
-936 937 0
-814 815 0
-65 840 845 869 874 881 885 896 919 943 0
-815 816 0
-820 825 0
-823 824 0
-40 504 813 0
-824 825 0
39 826 0
-826 827 0
-829 831 0
49 830 0
-831 832 845 846 0
50 832 848 871 0
-832 833 0
-833 834 835 874 878 879 891 943 0
85 835 851 882 0
-836 837 838 886 919 0
-837 839 0
-841 842 0
-846 847 0
-847 848 0
-849 850 851 857 858 861 942 0
-853 854 0
68 854 862 887 894 931 936 951 978 989 0
-870 871 0
-876 877 0
-878 880 0
-1000 1001 0
-879 880 0
-625 626 0
-881 882 0
-1004 1005 0
-882 883 0
-883 884 0
-884 888 0
-885 886 0
-886 887 0
-888 889 0
-889 899 0
-890 895 0
-893 894 0
-894 895 0
-896 897 0
-897 898 0
-898 899 0
-557 558 0
66 900 920 944 0
-900 901 0
-901 902 903 1002 1003 1007 0
36 903 939 954 0
-904 905 906 909 916 964 0
-24 905 909 917 963 994 998 1002 0
-394 398 0
-906 907 0
-907 908 0
-908 911 0
-909 910 0
-688 689 690 735 0
-13 912 916 925 929 938 956 963 970 974 981 985 1005 0
-912 914 0
-913 914 0
-914 915 0
-916 917 0
-919 920 0
-405 406 0
-921 922 923 930 935 974 975 0
-924 925 934 970 971 0
-925 927 0
-414 415 417 647 659 759 761 786 788 0
-928 932 0
-933 940 0
-938 939 0
-431 432 493 0
-939 940 0
-941 959 0
-942 945 0
-943 944 0
-946 948 0
-947 948 0
-948 949 981 982 0
-949 952 0
-951 952 0
-952 953 954 0
-953 955 0
-954 955 0
-955 957 0
-956 957 0
-958 959 0
-959 960 0
-960 961 0
-962 966 0
-963 964 1007 0
-226 227 0
-748 749 0
14 967 1010 0
-452 453 0
-967 968 0
-35 969 0
-21 121 0
-212 213 0
-980 993 0
-983 984 0
-205 206 0
-986 987 0
-207 209 0
-988 989 0
-209 210 0
-989 990 0
-990 991 0
-992 993 0
-482 483 0
-215 216 0
-994 996 0
-219 220 0
-997 1000 0
-217 220 0
-998 999 0
-999 1000 0
-1001 1011 0
-223 288 0
-1003 1004 0
-1006 1009 0
